10
5
655
20 31 17 87 76
24 18 32 81 25
58 72 23 99 28
45 76 86 90 97
42 46 17 48 27
98 67 62 27 48
80 12 50 19 28
94 63 98 50 80
75 41 50 55 14
61 37 18 79 72
1 4 2 5 3
5 3 1 2 4
2 3 5 1 4
3 2 5 1 4
5 1 4 3 2
2 1 5 4 3
5 2 4 1 3
2 1 3 4 5
5 1 3 2 4
5 3 2 4 1
